treewidth/data/CircularLadderGraph_20.gr
p tw 40 60
1 2
1 12
1 14
2 13
2 15
13 24
13 16
24 35
24 17
35 36
35 18
36 37
36 19
37 38
37 20
38 39
38 21
39 40
39 22
40 3
40 23
3 4
3 25
4 5
4 26
5 6
5 27
6 7
6 28
7 8
7 29
8 9
8 30
9 10
9 31
10 11
10 32
11 12
11 33
12 34
14 15
14 34
15 16
16 17
17 18
18 19
19 20
20 21
21 22
22 23
23 25
25 26
26 27
27 28
28 29
29 30
30 31
31 32
32 33
33 34
