treewidth/data/CircularLadderGraph_20.td
c width = 4, time = 0.097931
s td 36 5 40
b 1 7 19 28 30 35
b 2 7 9 19 30 35
b 3 9 19 30 32 35
b 4 9 11 19 32 35
b 5 11 19 32 34 35
b 6 11 17 19 34 35
b 7 11 13 17 34 35
b 8 11 13 15 17 34
b 9 1 11 13 15 34
b 10 1 2 13 15
b 11 1 11 12 34
b 12 1 14 15 34
b 13 13 15 16 17
b 14 13 17 24 35
b 15 17 18 19 35
b 16 11 32 33 34
b 17 9 10 11 32
b 18 9 30 31 32
b 19 7 8 9 30
b 20 7 19 28 35 37
b 21 7 19 21 28 37
b 22 7 21 28 37 39
b 23 7 21 23 28 39
b 24 3 7 23 28 39
b 25 3 7 23 26 28
b 26 3 5 7 26 28
b 27 3 4 5 26
b 28 5 6 7 28
b 29 5 26 27 28
b 30 3 23 25 26
b 31 3 23 39 40
b 32 21 22 23 39
b 33 21 37 38 39
b 34 19 20 21 37
b 35 19 35 36 37
b 36 7 28 29 30
9 10
9 11
9 12
8 9
8 13
7 8
7 14
6 7
6 15
5 6
5 16
4 5
4 17
3 4
3 18
2 3
2 19
1 2
26 27
26 28
26 29
25 26
25 30
24 25
24 31
23 24
23 32
22 23
22 33
21 22
21 34
20 21
20 35
1 20
1 36
